max: 100x12 + 100x13 +  0 - 10y1 - 20y2;
 - 5 <= x12 <= 5
 - 2 <= x13 <= 2
 - 5 <= x23 <= 5
 - 2 <= x24 <= 2
 - 5 <= x34 <= 5
1x12 + 2x13 + 1x23 + 2x24 + 3x34 <= 4y1 + 5y1;
1x12 + 2x13 + 2x23 + 1x24 + 4x34 <= 2y2 + 2y2;
5x12 + 0x13 + 0x23 + 0x24 + 6x34 <= 0y3 + 1y3;
y1 >= 0;
y2 >= 0;
